lab1/out/hilbert.log
GLPSOL--GLPK LP/MIP Solver 5.0
Parameter(s) specified in the command line:
 --model hilbert.mod --data hilbert.dat --output out/hilbert.txt
Reading model section from hilbert.mod...
29 lines were read
Reading data section from hilbert.dat...
hilbert.dat:2: warning: unexpected end of file; missing end statement inserted
2 lines were read
Generating objective_function...
Generating equality...
Model has been successfully generated
GLPK Simplex Optimizer 5.0
13 rows, 12 columns, 156 non-zeros
Preprocessing...
12 rows, 12 columns, 144 non-zeros
Scaling...
 A: min|aij| =  4.348e-02  max|aij| =  1.000e+00  ratio =  2.300e+01
GM: min|aij| =  6.322e-01  max|aij| =  1.582e+00  ratio =  2.502e+00
EQ: min|aij| =  3.997e-01  max|aij| =  1.000e+00  ratio =  2.502e+00
Constructing initial basis...
Size of triangular part is 1
      0: obj =   1.343952029e+01 inf =   1.547e+01 (11)
      7: obj =   1.614593998e+01 inf =   1.832e-07 (0) 1
OPTIMAL LP SOLUTION FOUND
Time used:   0.0 secs
Memory used: 0.2 Mb (159149 bytes)
Display statement at line 24
X[1].val = 0.999612053437038
X[2].val = 1.01719727058072
X[3].val = 0.821541633624169
X[4].val = 1.67575774646996
X[5].val = 0.216792833115434
X[6].val = 0
X[7].val = 3.81203235493425
X[8].val = 0
X[9].val = 0
X[10].val = 0
X[11].val = 3.45706596762733
X[12].val = 0

n = 12
error = 1.29250739578124163032
Model has been successfully processed
Writing basic solution to 'out/hilbert.txt'...
